p edge 500 180
e 232 444 1.000000
e 232 287 1.000000
e 287 444 1.000000
e 439 474 1.000000
e 400 439 1.000000
e 400 474 1.000000
e 239 261 1.000000
e 232 239 1.000000
e 232 261 1.000000
e 301 438 1.000000
e 98 438 1.000000
e 98 301 1.000000
e 95 412 1.000000
e 95 263 1.000000
e 263 412 1.000000
e 244 323 1.000000
e 244 315 1.000000
e 315 323 1.000000
e 96 407 1.000000
e 49 407 1.000000
e 49 96 1.000000
e 156 229 1.000000
e 73 229 1.000000
e 73 156 1.000000
e 47 276 1.000000
e 47 415 1.000000
e 276 415 1.000000
e 356 456 1.000000
e 325 456 1.000000
e 325 356 1.000000
e 22 305 1.000000
e 22 203 1.000000
e 203 305 1.000000
e 232 494 1.000000
e 232 335 1.000000
e 335 494 1.000000
e 316 379 1.000000
e 316 333 1.000000
e 333 379 1.000000
e 81 320 1.000000
e 8 81 1.000000
e 8 320 1.000000
e 271 426 1.000000
e 33 426 1.000000
e 33 271 1.000000
e 31 98 1.000000
e 19 31 1.000000
e 19 98 1.000000
e 124 451 1.000000
e 124 308 1.000000
e 308 451 1.000000
e 16 399 1.000000
e 16 238 1.000000
e 238 399 1.000000
e 168 226 1.000000
e 168 303 1.000000
e 226 303 1.000000
e 101 432 1.000000
e 101 266 1.000000
e 266 432 1.000000
e 120 328 1.000000
e 120 151 1.000000
e 151 328 1.000000
e 256 340 1.000000
e 3 256 1.000000
e 3 340 1.000000
e 44 235 1.000000
e 44 336 1.000000
e 235 336 1.000000
e 143 209 1.000000
e 143 283 1.000000
e 209 283 1.000000
e 431 478 1.000000
e 43 478 1.000000
e 43 431 1.000000
e 131 363 1.000000
e 131 162 1.000000
e 162 363 1.000000
e 118 389 1.000000
e 118 263 1.000000
e 263 389 1.000000
e 16 148 1.000000
e 16 36 1.000000
e 36 148 1.000000
e 289 393 1.000000
e 56 289 1.000000
e 56 393 1.000000
e 206 434 1.000000
e 56 206 1.000000
e 56 434 1.000000
e 149 198 1.000000
e 35 149 1.000000
e 35 198 1.000000
e 9 491 1.000000
e 9 434 1.000000
e 434 491 1.000000
e 1 351 1.000000
e 1 110 1.000000
e 110 351 1.000000
e 108 475 1.000000
e 108 467 1.000000
e 467 475 1.000000
e 27 241 1.000000
e 27 193 1.000000
e 193 241 1.000000
e 204 363 1.000000
e 204 215 1.000000
e 215 363 1.000000
e 38 290 1.000000
e 38 323 1.000000
e 290 323 1.000000
e 102 399 1.000000
e 102 346 1.000000
e 346 399 1.000000
e 139 173 1.000000
e 45 139 1.000000
e 45 173 1.000000
e 160 171 1.000000
e 8 160 1.000000
e 8 171 1.000000
e 210 494 1.000000
e 210 389 1.000000
e 389 494 1.000000
e 61 473 1.000000
e 61 69 1.000000
e 69 473 1.000000
e 127 362 1.000000
e 52 127 1.000000
e 52 362 1.000000
e 6 31 1.000000
e 6 239 1.000000
e 31 239 1.000000
e 250 409 1.000000
e 91 409 1.000000
e 91 250 1.000000
e 287 350 1.000000
e 97 350 1.000000
e 97 287 1.000000
e 230 261 1.000000
e 98 230 1.000000
e 98 261 1.000000
e 375 394 1.000000
e 68 375 1.000000
e 68 394 1.000000
e 215 330 1.000000
e 197 215 1.000000
e 197 330 1.000000
e 60 203 1.000000
e 60 216 1.000000
e 203 216 1.000000
e 109 139 1.000000
e 1 109 1.000000
e 1 139 1.000000
e 443 498 1.000000
e 443 500 1.000000
e 498 500 1.000000
e 304 412 1.000000
e 156 412 1.000000
e 156 304 1.000000
e 11 454 1.000000
e 11 108 1.000000
e 108 454 1.000000
e 96 202 1.000000
e 96 438 1.000000
e 202 438 1.000000
e 309 329 1.000000
e 296 309 1.000000
e 296 329 1.000000
e 52 75 1.000000
e 22 52 1.000000
e 22 75 1.000000
e 110 227 1.000000
e 110 133 1.000000
e 133 227 1.000000
e 5 396 1.000000
e 5 313 1.000000
e 313 396 1.000000
e 169 426 1.000000
e 152 169 1.000000
e 152 426 1.000000
